%Chk=6WZ3_large_mk.chk
%Mem=3000MB
%NProcShared=2
#N B3LYP/6-31G* Integral=(Grid=UltraFine) Pop(MK,ReadRadii) SCF=XQC
IOp(6/33=2,6/42=6)
 
CLR
 
-1  2
H          14.415   14.707   13.811
C          15.209   13.974   13.953
H          15.481   13.977   15.009
H          14.860   12.976   13.687
C          16.456   14.339   13.157
O          17.580   14.128   13.623
N          16.292   14.903   11.959
H          15.533   15.066   11.590
C          17.464   15.290   11.179
H          18.076   14.538   11.143
C          17.034   15.654    9.760
H          16.367   16.357    9.803
H          17.797   16.016    9.282
C          16.469   14.483    8.976
H          15.717   14.096    9.451
H          16.136   14.787    8.117
S          17.763   13.237    8.737
C          16.746   11.801    8.402
H          17.315   11.030    8.249
H          16.168   11.630    9.162
H          16.204   11.965    7.614
C          18.211   16.451   11.837
O          19.448   16.509   11.801
N          17.479   17.388   12.446
H          16.619   17.414   12.450
C          18.139   18.471   13.173
H          18.859   18.951   12.510
H          17.401   19.211   13.483
H          18.690   18.086   14.031
H          21.598    8.614    1.544
C          20.509    8.639    1.588
H          20.138    7.821    0.970
H          20.162    8.494    2.611
C          19.954    9.945    1.023
O          18.976    9.936    0.269
N          20.552   11.076    1.386
H          21.224   11.123    1.921
C          20.081   12.360    0.874
H          19.176   12.490    1.198
C          20.981   13.481    1.373
H          21.902   13.264    1.160
H          20.764   14.296    0.894
C          20.869   13.736    2.841
N          21.835   14.419    3.545
H          22.559   14.741    3.210
C          21.480   14.504    4.814
H          21.968   14.914    5.491
N          20.313   13.906    4.955
C          19.912   13.406    3.738
H          19.131   12.931    3.565
C          20.058   12.380   -0.645
O          19.094   12.865   -1.253
N          21.115   11.850   -1.268
H          21.774   11.473   -0.865
C          21.227   11.875   -2.722
H          21.181   12.911   -3.059
H          22.183   11.443   -3.019
H          20.399   11.346   -3.194
C          16.772   16.021    5.840
C          20.951   15.894    8.320
C          21.109   11.064    7.688
C          17.090   11.260    4.939
N          18.896   15.576    7.000
C          17.860   16.395    6.593
C          18.126   17.734    7.077
C          19.283   17.706    7.751
C          19.784   16.343    7.726
C          19.985   18.882    8.465
C          17.233   18.976    6.836
C          15.912   18.789    7.578
C          14.844   19.757    7.114
O          14.701   20.847    7.734
O          14.122   19.432    6.133
N          20.686   13.486    7.834
C          21.379   14.571    8.348
C          22.610   14.074    8.914
C          22.658   12.740    8.721
C          21.443   12.345    8.049
C          23.699   14.946    9.583
C          23.769   11.747    9.154
C          24.436   11.926   10.325
N          19.077   11.568    6.385
C          20.040   10.709    6.881
C          19.737    9.364    6.412
C          18.640    9.419    5.638
C          18.203   10.807    5.613
C          20.603    8.126    6.742
C          17.909    8.258    4.902
C          18.130    6.980    5.317
N          17.254   13.615    5.602
C          16.637   12.557    4.943
C          15.456   13.069    4.271
C          15.373   14.383    4.516
C          16.500   14.755    5.355
C          14.472   12.230    3.426
C          14.254   15.331    4.014
C          13.251   15.526    5.157
C          12.160   16.535    4.848
O          11.050   16.419    5.430
O          12.376   17.462    4.024
H          14.947   11.825    2.683
H          14.083   11.534    3.978
H          13.767   12.803    3.085
H          21.502    8.260    6.403
H          20.636    8.001    7.703
H          20.215    7.340    6.327
H          24.035   15.592    8.943
H          23.318   15.413   10.343
H          24.428   14.380    9.883
H          20.186   19.579    7.821
H          19.401   19.238    9.153
H          20.809   18.569    8.870
H          12.841   14.672    5.365
H          13.729   15.812    5.951
H          19.073    6.770    5.231
H          17.862    6.890    6.245
H          17.612    6.368    4.771
H          24.887   12.785   10.313
H          23.807   11.903   11.063
H          25.090   11.219   10.436
H          15.598   17.880    7.450
H          16.059   18.907    8.529
H          14.628   16.184    3.742
H          13.813   14.954    3.237
H          17.682   19.777    7.148
H          17.071   19.093    5.887
H          16.587   10.612    4.421
H          21.668   10.347    8.026
H          21.515   16.555    8.751
H          16.130   16.716    5.627
H          17.308    8.441    4.163
H          23.989   10.993    8.585
Fe         18.981   13.554    6.650
 
Fe 1.4
 
 
