%Chk=6WZ3_small_opt2.chk
%Mem=32GB
%NProcShared=8
# HF/3-21G* Geom=Chk Guess=CopyChk Opt
 
CLR
 
0  1

