%Chk=6WZ3_small_opt4.chk
%Mem=32GB
%NProcShared=8
# B3LYP/6-31G* Geom=Chk Guess=Read Opt
 
CLR
 
0  1

