%Chk=6WZ3_small_opt3.chk
%Mem=32GB
%NProcShared=8
# B3LYP/3-21G* Geom=Chk Guess=CopyChk Opt
 
CLR
 
0  1

