%chk=6WZ3_small_opt.chk
%mem=32GB
%nprocshared=8
# hf/3-21g* scf=qc geom=printinputorient

CLR

0 1
 O                  0.74095342    3.03430688   -1.70677482
 O                 -1.41038043    1.95417992    0.78221138
 O                 -1.87569784   -0.06078924   -0.12419724
 O                 -1.08680947   -2.62823159   -1.20261161
 O                  3.50743567    2.59987786   -0.96550104
 O                  4.18693036   -1.75001951    0.66310663
 O                  3.34100418   -0.64397481   -1.73919355
 O                 -0.74897224   -1.63092451    3.47329109
 O                 -3.26501842    3.09266066   -0.03998078
 O                 -2.42449619   -1.45809081   -1.90340439
 O                  5.43763973    0.21724542    0.69738293
 C                  0.43353873    0.73637962    0.09642967
 C                 -0.34563564    2.07191867   -0.15898650
 C                  1.82187744    0.94766529   -0.63941877
 C                  0.52437093    3.25955535   -0.25224365
 C                 -0.53821803   -0.37145325   -0.52852064
 C                 -0.35409404   -1.91609669   -0.20257081
 C                  2.63969877    2.09500074    0.05352317
 C                  1.72075752    3.20824135    0.62240695
 C                  1.11230210   -2.25839082   -0.24568249
 C                 -0.61835104    2.42495551   -1.58013776
 C                  2.79917086   -0.24290917   -0.67599361
 C                 -0.93416830   -2.37967208    1.17639912
 C                  1.79001936   -1.54823420    0.93257054
 C                  1.39896305    1.32769868   -2.07090989
 C                  3.05534369   -0.87971988    0.66145217
 C                 -0.17878697   -1.80055725    2.36300300
 C                  1.27294750   -1.44488181    2.16695723
 C                  1.34455188   -3.77662820   -0.12400331
 C                  1.69198856   -1.76859068   -1.58501913
 C                  2.13185501   -0.94389109    3.34366770
 C                 -2.25017126    3.10208994    0.70435725
 C                 -2.79100439   -0.89375538   -0.83864433
 C                 -1.90878596    4.35093303    1.53658885
 C                  5.35706440   -0.99101157    0.35122167
 C                 -4.22642279   -1.10023765   -0.32612857
 C                  6.51911789   -1.65356202   -0.41105707
 C                 -5.05683587   -1.91972691   -1.02123661
 C                 -4.65327736   -0.46437300    0.79968494
 C                 -6.37980294   -2.11188225   -0.60621962
 C                 -5.97258610   -0.62881828    1.24950831
 C                 -6.84481787   -1.45735178    0.53711084
 H                  0.60567455    0.54924258    1.13582065
 H                 -0.01276388    4.16617580   -0.06621512
 H                 -0.42408126   -0.24530115   -1.58524921
 H                  3.21399251    1.74006674    0.88191131
 H                  1.36160173    2.97801322    1.60378084
 H                  2.28026957    4.11975759    0.65744219
 H                 -0.91323184    1.63442219   -2.23911056
 H                 -1.36289215    3.18873884   -1.66158986
 H                 -0.85502261   -3.44522799    1.22846858
 H                 -1.96078373   -2.08667993    1.23610477
 H                  0.77494674    2.19579638   -2.04010461
 H                  2.27156806    1.53593964   -2.65437193
 H                  0.86080203    0.51564548   -2.51118390
 H                  3.21331922   -0.11980703    1.39717185
 H                  2.39553904   -3.97936264   -0.15553587
 H                  0.94094528   -4.12624332    0.80170949
 H                  0.86201054   -4.27992406   -0.93654216
 H                  2.73932739   -1.98344261   -1.61991075
 H                  1.19854187   -2.26888035   -2.39165668
 H                  1.54117818   -0.71345966   -1.67425348
 H                 -0.98924327   -3.57208517   -1.05871867
 H                  2.98045665    2.94271582   -1.69144068
 H                  2.06105664    0.12081452    3.41102086
 H                  1.77883573   -1.38349384    4.25355584
 H                  3.15215693   -1.22470705    3.18530244
 H                 -2.26894462    5.22309191    1.03475945
 H                 -2.37016465    4.27576288    2.49762006
 H                 -0.84798685    4.42149140    1.65547896
 H                  6.13429975   -2.42343290   -1.04580054
 H                  7.20865158   -2.07814753    0.28720286
 H                  7.02109534   -0.91915486   -1.00578386
 H                 -4.69761432   -2.42138843   -1.89537730
 H                 -3.98227843    0.16640544    1.34238445
 H                 -7.02934899   -2.75590302   -1.16200630
 H                 -6.30966558   -0.12351854    2.13242281
 H                 -7.85644507   -1.58985487    0.86325682

